
(set-logic ALL) 

(declare-datatype MyList ((Nil) (Cons (head Real) (tail MyList)) )) 
(declare-fun l0 () MyList) 
(declare-fun l1 () MyList) 
(declare-fun l2 () MyList) 
(declare-fun l3 () MyList) 
(declare-fun i0 () Real) 
(declare-fun i1 () Real) 
(assert (is-Cons Nil) )
(assert (is-Cons l1) )
(assert (= l0 Nil) )
(assert (and (= l1 Nil) (is-Cons Nil) (= l0 Nil)) )
(assert (= l1 Nil) )
(assert (not (= l1 Nil)) )
(assert (and (= l0 Nil) (= l2 l0)) )
(assert (is-Cons Nil) )
(check-sat)
